1654454273988418925504,9,1,2,02,7,1,2,011,5,1,2,014,5,1,2,07,4,1,2,012,2,1,2,011,14,1,2,02,9,1,2,09,11,1,2,04,11,1,2,013,4,1,2,012,7,1,2,06,14,1,2,014,11,1,2,02,15,1,2,014,13,1,2,015,1,1,2,014,5,1,2,06,13,1,2,01,11,1,2,014,5,1,2,03,9,1,2,07,13,1,2,012,15,1,2,05,10,1,2,014,11,1,2,06,2,1,2,01,2,1,2,09,11,1,2,09,9,1,2,05,1,1,2,06,2,1,2,015,11,1,2,010,5,1,2,03,11,1,2,012,14,1,2,04,8,1,2,03,10,1,2,015,7,1,2,06,8,1,2,015,10,1,2,03,8,1,2,04,13,1,2,04,7,1,2,015,6,1,2,04,14,1,2,011,9,1,2,08,12,1,2,08,1,1,2,07,3,1,2,0